Rodando pra 1h
Optimize a model with 490095 rows, 734078 columns and 4400386 nonzeros
Coefficient statistics:
  Matrix range    [1e+00, 1e+06]
  Objective range [5e-01, 5e-01]
  Bounds range    [1e+00, 1e+06]
  RHS range       [1e+00, 7e+02]
Presolve removed 0 rows and 0 columns (presolve time = 5s) ...
Presolve time: 8.55s
Presolved: 490095 rows, 734078 columns, 4400386 nonzeros
Variable types: 489364 continuous, 244714 integer (244714 binary)
Optimize a model with 490095 rows, 734078 columns and 4400386 nonzeros
Coefficient statistics:
  Matrix range    [1e+00, 1e+06]
  Objective range [5e-01, 5e-01]
  Bounds range    [1e+00, 1e+06]
  RHS range       [1e+00, 7e+02]
Presolved: 490095 rows, 734078 columns, 4400386 nonzeros


Root simplex log...

Iteration    Objective       Primal Inf.    Dual Inf.      Time
       0    0.0000000e+00   2.110683e+03   0.000000e+00     30s
    1455    0.0000000e+00   0.000000e+00   0.000000e+00     31s

Root relaxation: objective 0.000000e+00, 1455 iterations, 3.77 seconds

    Nodes    |    Current Node    |     Objective Bounds      |     Work
 Expl Unexpl |  Obj  Depth IntInf | Incumbent    BestBd   Gap | It/Node Time

     0     0    0.00000    0  721          -    0.00000      -     -  747s
     0     0    0.00000    0  581          -    0.00000      -     - 2405s
     0     0    0.00000    0  441          -    0.00000      -     - 2407s
     0     0    0.00000    0  305          -    0.00000      -     - 2669s
     0     0    0.00000    0  165          -    0.00000      -     - 2674s
     0     0    0.00000    0   44          -    0.00000      -     - 2776s
     0     0    0.00000    0   32          -    0.00000      -     - 2782s
     0     0    0.00000    0   41          -    0.00000      -     - 2812s
     0     0    0.00000    0   41          -    0.00000      -     - 2819s
     0     0    0.00000    0   33          -    0.00000      -     - 2860s
     0     0    0.00000    0   45          -    0.00000      -     - 2870s
     0     0    0.00000    0   63          -    0.00000      -     - 2913s
     0     0    0.00000    0   58          -    0.00000      -     - 2922s
     0     0    0.00000    0   60          -    0.00000      -     - 3600s

Cutting planes:
  MIR: 4
  Flow cover: 724

Explored 0 nodes (566223 simplex iterations) in 3600.28 seconds
Thread count was 1 (of 4 available processors)

Time limit reached
Best objective -, best bound 0.000000000000e+00, gap -
Tempo: 3590.03 segundos

Error code = 10004
Var::get
